
******************************************************************************
This program contains Ipopt, a library for large-scale nonlinear optimization.
 Ipopt is released as open source code under the Eclipse Public License (EPL).
         For more information visit http://projects.coin-or.org/Ipopt

This version of Ipopt was compiled from source code available at
    https://github.com/IDAES/Ipopt as part of the Institute for the Design of
    Advanced Energy Systems Process Systems Engineering Framework (IDAES PSE
    Framework) Copyright (c) 2018-2019. See https://github.com/IDAES/idaes-pse.

This version of Ipopt was compiled using HSL, a collection of Fortran codes
    for large-scale scientific computation.  All technical papers, sales and
    publicity material resulting from use of the HSL codes within IPOPT must
    contain the following acknowledgement:
        HSL, a collection of Fortran codes for large-scale scientific
        computation. See http://www.hsl.rl.ac.uk.
******************************************************************************

This is Ipopt version 3.13.2, running with linear solver ma27.

Number of nonzeros in equality constraint Jacobian...:      808
Number of nonzeros in inequality constraint Jacobian.:        0
Number of nonzeros in Lagrangian Hessian.............:      702

Total number of variables............................:      351
                     variables with only lower bounds:      108
                variables with lower and upper bounds:      189
                     variables with only upper bounds:        0
Total number of equality constraints.................:      350
Total number of inequality constraints...............:        0
        inequality constraints with only lower bounds:        0
   inequality constraints with lower and upper bounds:        0
        inequality constraints with only upper bounds:        0

iter    objective    inf_pr   inf_du lg(mu)  ||d||  lg(rg) alpha_du alpha_pr  ls
   0  0.0000000e+00 4.79e-01 1.78e-15  -1.0 0.00e+00    -  0.00e+00 0.00e+00   0
   1  4.6243536e-01 4.11e-01 2.35e+03  -1.0 2.86e+05    -  6.77e-01 1.47e-01h  1
   2  5.1856091e-01 4.07e-01 2.43e+03  -1.0 3.09e+05    -  7.04e-01 9.90e-03h  1
   3  2.9652890e+01 6.77e-02 1.57e+04  -1.0 3.19e+05    -  7.10e-01 9.90e-01h  1
   4  4.0578069e+01 2.89e-03 4.77e+02  -1.0 6.32e+04    -  9.35e-01 9.90e-01h  1
   5  4.1018670e+01 3.31e-05 3.21e+01  -1.0 2.45e+03    -  9.90e-01 9.90e-01h  1
   6  4.1019590e+01 3.26e-05 1.15e+07  -1.0 5.72e+02    -  9.90e-01 1.55e-02f  7
   7  4.1023465e+01 3.16e-05 2.27e+07  -1.0 1.26e+03    -  9.90e-01 3.09e-02f  6
   8  4.1145344e+01 5.74e-05 3.51e+05  -1.0 1.25e+03    -  1.00e+00 9.90e-01H  1
   9  4.1144998e+01 5.67e-07 1.24e+07  -1.0 4.13e+00    -  1.00e+00 9.90e-01h  1
iter    objective    inf_pr   inf_du lg(mu)  ||d||  lg(rg) alpha_du alpha_pr  ls
  10  4.1144998e+01 5.67e-09 1.24e+09  -1.0 2.67e-03    -  1.00e+00 9.90e-01h  1
  11  4.1144998e+01 5.66e-11 1.24e+11  -1.0 2.65e-05    -  1.00e+00 9.90e-01h  1
In iteration 11, 27 Slacks too small, adjusting variable bounds
  12  4.1144998e+01 3.79e-12 1.24e+13  -1.0 1.03e-06    -  1.00e+00 9.90e-01h  1
  13  4.1144998e+01 1.26e-12 1.17e-01  -1.0 6.22e-07    -  1.00e+00 1.00e+00h  1
  14  4.1144994e+01 2.25e-12 1.26e+13  -9.0 1.55e+03    -  9.98e-01 2.50e-05f 16
  15  4.1144991e+01 2.95e-12 1.27e+13  -9.0 1.28e+03    -  9.99e-01 3.02e-05f 16
  16  4.1144990e+01 1.19e-12 1.27e+13  -9.0 1.27e+03    -  1.00e+00 7.62e-06f 18
  17  4.1144988e+01 1.42e-12 1.27e+13  -9.0 1.27e+03    -  1.00e+00 1.53e-05f 17
  18  4.1144987e+01 1.53e-12 1.27e+13  -9.0 1.27e+03    -  1.00e+00 7.63e-06f 18
  19  4.1023463e+01 7.95e-04 1.13e+07  -9.0 1.27e+03    -  1.00e+00 1.00e+00f  1
iter    objective    inf_pr   inf_du lg(mu)  ||d||  lg(rg) alpha_du alpha_pr  ls
  20  4.1022267e+01 4.79e-08 4.05e-04  -9.0 1.20e+01    -  1.00e+00 1.00e+00h  1
  21  4.1022267e+01 6.43e-12 1.46e-11  -9.0 9.75e-05    -  1.00e+00 1.00e+00h  1

Number of Iterations....: 21

                                   (scaled)                 (unscaled)
Objective...............:   4.1022266917172786e+01    4.1022266917172786e+01
Dual infeasibility......:   1.4551915228366852e-11    1.4551915228366852e-11
Constraint violation....:   6.4277472233698063e-12    6.4277472233698063e-12
Complementarity.........:   9.0909091731766314e-10    9.0909091731766314e-10
Overall NLP error.......:   1.4363329594349696e-11    9.0909091731766314e-10


Number of objective function evaluations             = 136
Number of objective gradient evaluations             = 22
Number of equality constraint evaluations            = 136
Number of inequality constraint evaluations          = 0
Number of equality constraint Jacobian evaluations   = 22
Number of inequality constraint Jacobian evaluations = 0
Number of Lagrangian Hessian evaluations             = 21
Total CPU secs in IPOPT (w/o function evaluations)   =      0.030
Total CPU secs in NLP function evaluations           =      0.717

EXIT: Optimal Solution Found.
